nNurses = 173;
nHours = 33;
minHours = 6;
maxHours = 9;
maxConsec = 8;
maxPresence = 20;
demand = [11, 16, 13, 15, 10, 10, 11, 11, 14, 10, 11, 12, 15, 10, 9, 11, 6, 7, 8, 12, 9, 7, 10, 6, 10, 5, 10, 11, 6, 8, 11, 8, 5];
